NAME JobShopModel
ROWS
 N  OBJ
 G  c0      
 L  c1      
 G  c2      
 L  c3      
 G  c4      
 L  c5      
 G  c6      
 L  c7      
 G  c8      
 L  c9      
 G  c10     
 G  c11     
 G  c12     
 G  c13     
 G  c14     
 E  c15     
 E  c16     
 E  c17     
 E  c18     
 E  c19     
 E  c20     
 E  c21     
 E  c22     
 E  c23     
 L  c24     
 L  c25     
 L  c26     
 L  c27     
 L  c28     
 L  c29     
 L  c30     
 L  c31     
 L  c32     
 L  c33     
 L  c34     
 L  c35     
 L  c36     
 L  c37     
 L  c38     
 G  c39     
 G  c40     
 G  c41     
 G  c42     
 G  c43     
 G  c44     
 G  c45     
 G  c46     
 G  c47     
 G  c48     
 G  c49     
 G  c50     
 G  c51     
 G  c52     
 G  c53     
 G  c54     
 G  c55     
 G  c56     
 G  c57     
 G  c58     
 G  c59     
 G  c60     
 G  c61     
 G  c62     
 G  c63     
 G  c64     
 G  c65     
 G  c66     
 G  c67     
 G  c68     
 G  c69     
 G  c70     
 G  c71     
 G  c72     
 G  c73     
 G  c74     
 G  c75     
 G  c76     
 G  c77     
 G  c78     
 G  c79     
 G  c80     
 G  c81     
 G  c82     
 G  c83     
 G  c84     
 G  c85     
 G  c86     
 G  c87     
 G  c88     
 G  c89     
 G  c90     
 G  c91     
 G  c92     
 G  c93     
 G  c94     
 G  c95     
 G  c96     
 G  c97     
 G  c98     
 G  c99     
 G  c100    
 G  c101    
 G  c102    
 G  c103    
 G  c104    
 G  c105    
 G  c106    
 G  c107    
 G  c108    
 G  c109    
 G  c110    
 G  c111    
 G  c112    
 G  c113    
 G  c114    
 G  c115    
 G  c116    
 G  c117    
 G  c118    
 G  c119    
 G  c120    
 G  c121    
 G  c122    
 G  c123    
 G  c124    
 G  c125    
 G  c126    
 G  c127    
 G  c128    
 G  c129    
 G  c130    
 G  c131    
 G  c132    
 G  c133    
 G  c134    
 G  c135    
 G  c136    
 G  c137    
 G  c138    
 G  c139    
 G  OF_constraint
COLUMNS
    MARKER    'MARKER'                 'INTORG'
    y[0,0,1]  c0        50
    y[0,0,1]  c1        50
    y[0,0,1]  c15       1
    y[0,0,1]  c24       -10000000
    y[0,0,1]  c45       -10000000
    y[0,0,1]  c46       -10000000
    y[0,0,1]  c49       -10000000
    y[0,0,1]  c50       -10000000
    y[0,0,1]  c51       -10000000
    y[0,0,1]  c52       -10000000
    y[0,0,1]  c55       -10000000
    y[0,0,1]  c56       -10000000
    y[0,0,1]  c59       -10000000
    y[0,0,1]  c60       -10000000
    y[0,0,1]  c61       -10000000
    y[0,0,1]  c62       -10000000
    y[0,0,2]  c2        60
    y[0,0,2]  c3        60
    y[0,0,2]  c15       1
    y[0,0,2]  c25       -10000000
    y[0,0,2]  c47       -10000000
    y[0,0,2]  c48       -10000000
    y[0,0,2]  c53       -10000000
    y[0,0,2]  c54       -10000000
    y[0,0,2]  c57       -10000000
    y[0,0,2]  c58       -10000000
    y[0,1,0]  c16       1
    y[0,1,0]  c26       -10000000
    y[0,1,0]  c39       -40
    y[0,1,0]  c63       -10000000
    y[0,1,0]  c64       -10000000
    y[0,1,0]  c65       -10000000
    y[0,1,0]  c66       -10000000
    y[0,1,0]  c69       -10000000
    y[0,1,0]  c70       -10000000
    y[0,1,0]  c75       -10000000
    y[0,1,0]  c76       -10000000
    y[0,1,0]  c79       -10000000
    y[0,1,0]  c80       -10000000
    y[0,1,1]  c16       1
    y[0,1,1]  c27       -10000000
    y[0,1,1]  c39       -130
    y[0,1,1]  c45       -10000000
    y[0,1,1]  c46       -10000000
    y[0,1,1]  c61       -10000000
    y[0,1,1]  c62       -10000000
    y[0,1,1]  c67       -10000000
    y[0,1,1]  c68       -10000000
    y[0,1,1]  c71       -10000000
    y[0,1,1]  c72       -10000000
    y[0,1,1]  c73       -10000000
    y[0,1,1]  c74       -10000000
    y[0,1,1]  c77       -10000000
    y[0,1,1]  c78       -10000000
    y[0,2,0]  c17       1
    y[0,2,0]  c28       -10000000
    y[0,2,0]  c40       -17
    y[0,2,0]  c63       -10000000
    y[0,2,0]  c64       -10000000
    y[0,2,0]  c79       -10000000
    y[0,2,0]  c80       -10000000
    y[0,2,0]  c81       -10000000
    y[0,2,0]  c82       -10000000
    y[0,2,0]  c83       -10000000
    y[0,2,0]  c84       -10000000
    y[0,2,0]  c85       -10000000
    y[0,2,0]  c86       -10000000
    y[0,2,0]  c125      -480
    y[1,0,2]  c4        70
    y[1,0,2]  c5        70
    y[1,0,2]  c18       1
    y[1,0,2]  c29       -10000000
    y[1,0,2]  c47       -10000000
    y[1,0,2]  c48       -10000000
    y[1,0,2]  c87       -10000000
    y[1,0,2]  c88       -10000000
    y[1,0,2]  c89       -10000000
    y[1,0,2]  c90       -10000000
    y[1,1,0]  c19       1
    y[1,1,0]  c30       -10000000
    y[1,1,0]  c41       -150
    y[1,1,0]  c65       -10000000
    y[1,1,0]  c66       -10000000
    y[1,1,0]  c81       -10000000
    y[1,1,0]  c82       -10000000
    y[1,1,0]  c91       -10000000
    y[1,1,0]  c92       -10000000
    y[1,1,0]  c97       -10000000
    y[1,1,0]  c98       -10000000
    y[1,1,0]  c101      -10000000
    y[1,1,0]  c102      -10000000
    y[1,1,1]  c19       1
    y[1,1,1]  c31       -10000000
    y[1,1,1]  c41       -160
    y[1,1,1]  c49       -10000000
    y[1,1,1]  c50       -10000000
    y[1,1,1]  c67       -10000000
    y[1,1,1]  c68       -10000000
    y[1,1,1]  c93       -10000000
    y[1,1,1]  c94       -10000000
    y[1,1,1]  c95       -10000000
    y[1,1,1]  c96       -10000000
    y[1,1,1]  c99       -10000000
    y[1,1,1]  c100      -10000000
    y[1,2,0]  c20       1
    y[1,2,0]  c32       -10000000
    y[1,2,0]  c42       -30
    y[1,2,0]  c69       -10000000
    y[1,2,0]  c70       -10000000
    y[1,2,0]  c83       -10000000
    y[1,2,0]  c84       -10000000
    y[1,2,0]  c91       -10000000
    y[1,2,0]  c92       -10000000
    y[1,2,0]  c101      -10000000
    y[1,2,0]  c102      -10000000
    y[1,2,0]  c103      -10000000
    y[1,2,0]  c104      -10000000
    y[1,2,0]  c130      -480
    y[2,0,1]  c6        90
    y[2,0,1]  c7        90
    y[2,0,1]  c21       1
    y[2,0,1]  c33       -10000000
    y[2,0,1]  c51       -10000000
    y[2,0,1]  c52       -10000000
    y[2,0,1]  c71       -10000000
    y[2,0,1]  c72       -10000000
    y[2,0,1]  c93       -10000000
    y[2,0,1]  c94       -10000000
    y[2,0,1]  c105      -10000000
    y[2,0,1]  c106      -10000000
    y[2,0,1]  c109      -10000000
    y[2,0,1]  c110      -10000000
    y[2,0,1]  c111      -10000000
    y[2,0,1]  c112      -10000000
    y[2,0,1]  c117      -10000000
    y[2,0,1]  c118      -10000000
    y[2,0,2]  c8        100
    y[2,0,2]  c9        100
    y[2,0,2]  c21       1
    y[2,0,2]  c34       -10000000
    y[2,0,2]  c53       -10000000
    y[2,0,2]  c54       -10000000
    y[2,0,2]  c87       -10000000
    y[2,0,2]  c88       -10000000
    y[2,0,2]  c107      -10000000
    y[2,0,2]  c108      -10000000
    y[2,0,2]  c113      -10000000
    y[2,0,2]  c114      -10000000
    y[2,1,1]  c22       1
    y[2,1,1]  c35       -10000000
    y[2,1,1]  c43       -170
    y[2,1,1]  c55       -10000000
    y[2,1,1]  c56       -10000000
    y[2,1,1]  c73       -10000000
    y[2,1,1]  c74       -10000000
    y[2,1,1]  c95       -10000000
    y[2,1,1]  c96       -10000000
    y[2,1,1]  c105      -10000000
    y[2,1,1]  c106      -10000000
    y[2,1,1]  c111      -10000000
    y[2,1,1]  c112      -10000000
    y[2,1,1]  c115      -10000000
    y[2,1,1]  c116      -10000000
    y[2,1,1]  c119      -10000000
    y[2,1,1]  c120      -10000000
    y[2,1,2]  c22       1
    y[2,1,2]  c36       -10000000
    y[2,1,2]  c43       -180
    y[2,1,2]  c57       -10000000
    y[2,1,2]  c58       -10000000
    y[2,1,2]  c89       -10000000
    y[2,1,2]  c90       -10000000
    y[2,1,2]  c107      -10000000
    y[2,1,2]  c108      -10000000
    y[2,1,2]  c113      -10000000
    y[2,1,2]  c114      -10000000
    y[2,2,0]  c23       1
    y[2,2,0]  c37       -10000000
    y[2,2,0]  c44       -50
    y[2,2,0]  c75       -10000000
    y[2,2,0]  c76       -10000000
    y[2,2,0]  c85       -10000000
    y[2,2,0]  c86       -10000000
    y[2,2,0]  c97       -10000000
    y[2,2,0]  c98       -10000000
    y[2,2,0]  c103      -10000000
    y[2,2,0]  c104      -10000000
    y[2,2,0]  c136      -480
    y[2,2,1]  c23       1
    y[2,2,1]  c38       -10000000
    y[2,2,1]  c44       -60
    y[2,2,1]  c59       -10000000
    y[2,2,1]  c60       -10000000
    y[2,2,1]  c77       -10000000
    y[2,2,1]  c78       -10000000
    y[2,2,1]  c99       -10000000
    y[2,2,1]  c100      -10000000
    y[2,2,1]  c109      -10000000
    y[2,2,1]  c110      -10000000
    y[2,2,1]  c115      -10000000
    y[2,2,1]  c116      -10000000
    y[2,2,1]  c117      -10000000
    y[2,2,1]  c118      -10000000
    y[2,2,1]  c119      -10000000
    y[2,2,1]  c120      -10000000
    y[2,2,1]  c138      -480
    x[0,0,0,0]  OBJ       0
    x[0,0,0,1]  c45       10000000
    x[0,0,0,1]  c46       -10000000
    x[0,0,0,2]  OBJ       0
    x[0,0,1,0]  c47       10000000
    x[0,0,1,0]  c48       -10000000
    x[0,0,1,1]  c49       10000000
    x[0,0,1,1]  c50       -10000000
    x[0,0,1,2]  OBJ       0
    x[0,0,2,0]  c51       10000000
    x[0,0,2,0]  c52       -10000000
    x[0,0,2,0]  c53       10000000
    x[0,0,2,0]  c54       -10000000
    x[0,0,2,1]  c55       10000000
    x[0,0,2,1]  c56       -10000000
    x[0,0,2,1]  c57       10000000
    x[0,0,2,1]  c58       -10000000
    x[0,0,2,2]  c59       10000000
    x[0,0,2,2]  c60       -10000000
    x[0,1,0,0]  c61       10000000
    x[0,1,0,0]  c62       -10000000
    x[0,1,0,1]  OBJ       0
    x[0,1,0,2]  c63       10000000
    x[0,1,0,2]  c64       -10000000
    x[0,1,1,0]  OBJ       0
    x[0,1,1,1]  c65       10000000
    x[0,1,1,1]  c66       -10000000
    x[0,1,1,1]  c67       10000000
    x[0,1,1,1]  c68       -10000000
    x[0,1,1,2]  c69       10000000
    x[0,1,1,2]  c70       -10000000
    x[0,1,2,0]  c71       10000000
    x[0,1,2,0]  c72       -10000000
    x[0,1,2,1]  c73       10000000
    x[0,1,2,1]  c74       -10000000
    x[0,1,2,2]  c75       10000000
    x[0,1,2,2]  c76       -10000000
    x[0,1,2,2]  c77       10000000
    x[0,1,2,2]  c78       -10000000
    x[0,2,0,0]  OBJ       0
    x[0,2,0,1]  c79       10000000
    x[0,2,0,1]  c80       -10000000
    x[0,2,0,2]  OBJ       0
    x[0,2,1,0]  OBJ       0
    x[0,2,1,1]  c81       10000000
    x[0,2,1,1]  c82       -10000000
    x[0,2,1,2]  c83       10000000
    x[0,2,1,2]  c84       -10000000
    x[0,2,2,0]  OBJ       0
    x[0,2,2,1]  OBJ       0
    x[0,2,2,2]  c85       10000000
    x[0,2,2,2]  c86       -10000000
    x[1,0,0,0]  OBJ       0
    x[1,0,0,1]  OBJ       0
    x[1,0,0,2]  OBJ       0
    x[1,0,1,0]  OBJ       0
    x[1,0,1,1]  OBJ       0
    x[1,0,1,2]  OBJ       0
    x[1,0,2,0]  c87       10000000
    x[1,0,2,0]  c88       -10000000
    x[1,0,2,1]  c89       10000000
    x[1,0,2,1]  c90       -10000000
    x[1,0,2,2]  OBJ       0
    x[1,1,0,0]  OBJ       0
    x[1,1,0,1]  OBJ       0
    x[1,1,0,2]  OBJ       0
    x[1,1,1,0]  OBJ       0
    x[1,1,1,1]  OBJ       0
    x[1,1,1,2]  c91       10000000
    x[1,1,1,2]  c92       -10000000
    x[1,1,2,0]  c93       10000000
    x[1,1,2,0]  c94       -10000000
    x[1,1,2,1]  c95       10000000
    x[1,1,2,1]  c96       -10000000
    x[1,1,2,2]  c97       10000000
    x[1,1,2,2]  c98       -10000000
    x[1,1,2,2]  c99       10000000
    x[1,1,2,2]  c100      -10000000
    x[1,2,0,0]  OBJ       0
    x[1,2,0,1]  OBJ       0
    x[1,2,0,2]  OBJ       0
    x[1,2,1,0]  OBJ       0
    x[1,2,1,1]  c101      10000000
    x[1,2,1,1]  c102      -10000000
    x[1,2,1,2]  OBJ       0
    x[1,2,2,0]  OBJ       0
    x[1,2,2,1]  OBJ       0
    x[1,2,2,2]  c103      10000000
    x[1,2,2,2]  c104      -10000000
    x[2,0,0,0]  OBJ       0
    x[2,0,0,1]  OBJ       0
    x[2,0,0,2]  OBJ       0
    x[2,0,1,0]  OBJ       0
    x[2,0,1,1]  OBJ       0
    x[2,0,1,2]  OBJ       0
    x[2,0,2,0]  OBJ       0
    x[2,0,2,1]  c105      10000000
    x[2,0,2,1]  c106      -10000000
    x[2,0,2,1]  c107      10000000
    x[2,0,2,1]  c108      -10000000
    x[2,0,2,2]  c109      10000000
    x[2,0,2,2]  c110      -10000000
    x[2,1,0,0]  OBJ       0
    x[2,1,0,1]  OBJ       0
    x[2,1,0,2]  OBJ       0
    x[2,1,1,0]  OBJ       0
    x[2,1,1,1]  OBJ       0
    x[2,1,1,2]  OBJ       0
    x[2,1,2,0]  c111      10000000
    x[2,1,2,0]  c112      -10000000
    x[2,1,2,0]  c113      10000000
    x[2,1,2,0]  c114      -10000000
    x[2,1,2,1]  OBJ       0
    x[2,1,2,2]  c115      10000000
    x[2,1,2,2]  c116      -10000000
    x[2,2,0,0]  OBJ       0
    x[2,2,0,1]  OBJ       0
    x[2,2,0,2]  OBJ       0
    x[2,2,1,0]  OBJ       0
    x[2,2,1,1]  OBJ       0
    x[2,2,1,2]  OBJ       0
    x[2,2,2,0]  c117      10000000
    x[2,2,2,0]  c118      -10000000
    x[2,2,2,1]  c119      10000000
    x[2,2,2,1]  c120      -10000000
    x[2,2,2,2]  OBJ       0
    s[0,0,1]  c0        1
    s[0,0,1]  c1        1
    s[0,0,1]  c24       1
    s[0,0,1]  c39       1
    s[0,0,1]  c45       -1
    s[0,0,1]  c46       1
    s[0,0,1]  c49       -1
    s[0,0,1]  c50       1
    s[0,0,1]  c51       -1
    s[0,0,1]  c52       1
    s[0,0,1]  c55       -1
    s[0,0,1]  c56       1
    s[0,0,1]  c59       -1
    s[0,0,1]  c60       1
    s[0,0,1]  c61       1
    s[0,0,1]  c62       -1
    s[0,0,1]  c121      1
    s[0,0,2]  c2        1
    s[0,0,2]  c3        1
    s[0,0,2]  c25       1
    s[0,0,2]  c39       1
    s[0,0,2]  c47       -1
    s[0,0,2]  c48       1
    s[0,0,2]  c53       -1
    s[0,0,2]  c54       1
    s[0,0,2]  c57       -1
    s[0,0,2]  c58       1
    s[0,0,2]  c122      1
    s[0,1,0]  c26       1
    s[0,1,0]  c39       -1
    s[0,1,0]  c40       1
    s[0,1,0]  c63       -1
    s[0,1,0]  c64       1
    s[0,1,0]  c65       -1
    s[0,1,0]  c66       1
    s[0,1,0]  c69       -1
    s[0,1,0]  c70       1
    s[0,1,0]  c75       -1
    s[0,1,0]  c76       1
    s[0,1,0]  c79       1
    s[0,1,0]  c80       -1
    s[0,1,0]  c123      1
    s[0,1,1]  c27       1
    s[0,1,1]  c39       -1
    s[0,1,1]  c40       1
    s[0,1,1]  c45       1
    s[0,1,1]  c46       -1
    s[0,1,1]  c61       -1
    s[0,1,1]  c62       1
    s[0,1,1]  c67       -1
    s[0,1,1]  c68       1
    s[0,1,1]  c71       -1
    s[0,1,1]  c72       1
    s[0,1,1]  c73       -1
    s[0,1,1]  c74       1
    s[0,1,1]  c77       -1
    s[0,1,1]  c78       1
    s[0,1,1]  c124      1
    s[0,2,0]  c28       1
    s[0,2,0]  c40       -1
    s[0,2,0]  c63       1
    s[0,2,0]  c64       -1
    s[0,2,0]  c79       -1
    s[0,2,0]  c80       1
    s[0,2,0]  c81       -1
    s[0,2,0]  c82       1
    s[0,2,0]  c83       -1
    s[0,2,0]  c84       1
    s[0,2,0]  c85       -1
    s[0,2,0]  c86       1
    s[0,2,0]  c125      1
    s[0,2,0]  c126      1
    s[1,0,2]  c4        1
    s[1,0,2]  c5        1
    s[1,0,2]  c29       1
    s[1,0,2]  c41       1
    s[1,0,2]  c47       1
    s[1,0,2]  c48       -1
    s[1,0,2]  c87       -1
    s[1,0,2]  c88       1
    s[1,0,2]  c89       -1
    s[1,0,2]  c90       1
    s[1,0,2]  c127      1
    s[1,1,0]  c30       1
    s[1,1,0]  c41       -1
    s[1,1,0]  c42       1
    s[1,1,0]  c65       1
    s[1,1,0]  c66       -1
    s[1,1,0]  c81       1
    s[1,1,0]  c82       -1
    s[1,1,0]  c91       -1
    s[1,1,0]  c92       1
    s[1,1,0]  c97       -1
    s[1,1,0]  c98       1
    s[1,1,0]  c101      1
    s[1,1,0]  c102      -1
    s[1,1,0]  c128      1
    s[1,1,1]  c31       1
    s[1,1,1]  c41       -1
    s[1,1,1]  c42       1
    s[1,1,1]  c49       1
    s[1,1,1]  c50       -1
    s[1,1,1]  c67       1
    s[1,1,1]  c68       -1
    s[1,1,1]  c93       -1
    s[1,1,1]  c94       1
    s[1,1,1]  c95       -1
    s[1,1,1]  c96       1
    s[1,1,1]  c99       -1
    s[1,1,1]  c100      1
    s[1,1,1]  c129      1
    s[1,2,0]  c32       1
    s[1,2,0]  c42       -1
    s[1,2,0]  c69       1
    s[1,2,0]  c70       -1
    s[1,2,0]  c83       1
    s[1,2,0]  c84       -1
    s[1,2,0]  c91       1
    s[1,2,0]  c92       -1
    s[1,2,0]  c101      -1
    s[1,2,0]  c102      1
    s[1,2,0]  c103      -1
    s[1,2,0]  c104      1
    s[1,2,0]  c130      1
    s[1,2,0]  c131      1
    s[2,0,1]  c6        1
    s[2,0,1]  c7        1
    s[2,0,1]  c33       1
    s[2,0,1]  c43       1
    s[2,0,1]  c51       1
    s[2,0,1]  c52       -1
    s[2,0,1]  c71       1
    s[2,0,1]  c72       -1
    s[2,0,1]  c93       1
    s[2,0,1]  c94       -1
    s[2,0,1]  c105      -1
    s[2,0,1]  c106      1
    s[2,0,1]  c109      -1
    s[2,0,1]  c110      1
    s[2,0,1]  c111      1
    s[2,0,1]  c112      -1
    s[2,0,1]  c117      1
    s[2,0,1]  c118      -1
    s[2,0,1]  c132      1
    s[2,0,2]  c8        1
    s[2,0,2]  c9        1
    s[2,0,2]  c34       1
    s[2,0,2]  c43       1
    s[2,0,2]  c53       1
    s[2,0,2]  c54       -1
    s[2,0,2]  c87       1
    s[2,0,2]  c88       -1
    s[2,0,2]  c107      -1
    s[2,0,2]  c108      1
    s[2,0,2]  c113      1
    s[2,0,2]  c114      -1
    s[2,0,2]  c133      1
    s[2,1,1]  c35       1
    s[2,1,1]  c43       -1
    s[2,1,1]  c44       1
    s[2,1,1]  c55       1
    s[2,1,1]  c56       -1
    s[2,1,1]  c73       1
    s[2,1,1]  c74       -1
    s[2,1,1]  c95       1
    s[2,1,1]  c96       -1
    s[2,1,1]  c105      1
    s[2,1,1]  c106      -1
    s[2,1,1]  c111      -1
    s[2,1,1]  c112      1
    s[2,1,1]  c115      -1
    s[2,1,1]  c116      1
    s[2,1,1]  c119      1
    s[2,1,1]  c120      -1
    s[2,1,1]  c134      1
    s[2,1,2]  c36       1
    s[2,1,2]  c43       -1
    s[2,1,2]  c44       1
    s[2,1,2]  c57       1
    s[2,1,2]  c58       -1
    s[2,1,2]  c89       1
    s[2,1,2]  c90       -1
    s[2,1,2]  c107      1
    s[2,1,2]  c108      -1
    s[2,1,2]  c113      -1
    s[2,1,2]  c114      1
    s[2,1,2]  c135      1
    s[2,2,0]  c37       1
    s[2,2,0]  c44       -1
    s[2,2,0]  c75       1
    s[2,2,0]  c76       -1
    s[2,2,0]  c85       1
    s[2,2,0]  c86       -1
    s[2,2,0]  c97       1
    s[2,2,0]  c98       -1
    s[2,2,0]  c103      1
    s[2,2,0]  c104      -1
    s[2,2,0]  c136      1
    s[2,2,0]  c137      1
    s[2,2,1]  c38       1
    s[2,2,1]  c44       -1
    s[2,2,1]  c59       1
    s[2,2,1]  c60       -1
    s[2,2,1]  c77       1
    s[2,2,1]  c78       -1
    s[2,2,1]  c99       1
    s[2,2,1]  c100      -1
    s[2,2,1]  c109      1
    s[2,2,1]  c110      -1
    s[2,2,1]  c115      1
    s[2,2,1]  c116      -1
    s[2,2,1]  c117      -1
    s[2,2,1]  c118      1
    s[2,2,1]  c119      -1
    s[2,2,1]  c120      1
    s[2,2,1]  c138      1
    s[2,2,1]  c139      1
    Z_FO      OBJ       1
    Z_FO      OF_constraint  1
    C112      c0        -10000000
    C112      c1        -10000000
    C112      c10       1
    C112      OF_constraint  430
    C113      c2        -10000000
    C113      c3        -10000000
    C113      c11       1
    C113      OF_constraint  420
    C114      c4        -10000000
    C114      c5        -10000000
    C114      c12       1
    C114      OF_constraint  410
    C115      c6        -10000000
    C115      c7        -10000000
    C115      c13       1
    C115      OF_constraint  390
    C116      c8        -10000000
    C116      c9        -10000000
    C116      c14       1
    C116      OF_constraint  380
    MARKER    'MARKER'                 'INTEND'
RHS
    RHS1      c0        -9999520
    RHS1      c1        480
    RHS1      c2        -9999520
    RHS1      c3        480
    RHS1      c4        -9999520
    RHS1      c5        480
    RHS1      c6        -9999520
    RHS1      c7        480
    RHS1      c8        -9999520
    RHS1      c9        480
    RHS1      c15       1
    RHS1      c16       1
    RHS1      c17       1
    RHS1      c18       1
    RHS1      c19       1
    RHS1      c20       1
    RHS1      c21       1
    RHS1      c22       1
    RHS1      c23       1
    RHS1      c45       -19999518
    RHS1      c46       -29999764
    RHS1      c47       -19999814
    RHS1      c48       -29999828
    RHS1      c49       -19999310
    RHS1      c50       -29999412
    RHS1      c51       -19999535
    RHS1      c52       -29999858
    RHS1      c53       -19999783
    RHS1      c54       -29999728
    RHS1      c55       -19999242
    RHS1      c56       -29999797
    RHS1      c57       -19999767
    RHS1      c58       -29999753
    RHS1      c59       -19999750
    RHS1      c60       -29999220
    RHS1      c61       -19999764
    RHS1      c62       -29999518
    RHS1      c63       -19999486
    RHS1      c64       -29999464
    RHS1      c65       -19999800
    RHS1      c66       -29999346
    RHS1      c67       -19999295
    RHS1      c68       -29999590
    RHS1      c69       -19999778
    RHS1      c70       -29999953
    RHS1      c71       -19999734
    RHS1      c72       -29999790
    RHS1      c73       -19999715
    RHS1      c74       -29999754
    RHS1      c75       -19999510
    RHS1      c76       -29999554
    RHS1      c77       -19999726
    RHS1      c78       -29999364
    RHS1      c79       -19999464
    RHS1      c80       -29999486
    RHS1      c81       -19999929
    RHS1      c82       -29999702
    RHS1      c83       -19999128
    RHS1      c84       -29999798
    RHS1      c85       -19999887
    RHS1      c86       -29999585
    RHS1      c87       -19999450
    RHS1      c88       -29999716
    RHS1      c89       -19999830
    RHS1      c90       -29999654
    RHS1      c91       -19999791
    RHS1      c92       -29999574
    RHS1      c93       -19999200
    RHS1      c94       -29999852
    RHS1      c95       -19999552
    RHS1      c96       -29999566
    RHS1      c97       -19999590
    RHS1      c98       -29999286
    RHS1      c99       -19998945
    RHS1      c100      -29999529
    RHS1      c101      -19999574
    RHS1      c102      -29999791
    RHS1      c103      -19999522
    RHS1      c104      -29999815
    RHS1      c105      -19999771
    RHS1      c106      -29999620
    RHS1      c107      -19999756
    RHS1      c108      -29999748
    RHS1      c109      -19999604
    RHS1      c110      -29999536
    RHS1      c111      -19999620
    RHS1      c112      -29999771
    RHS1      c113      -19999748
    RHS1      c114      -29999756
    RHS1      c115      -19999744
    RHS1      c116      -29999370
    RHS1      c117      -19999536
    RHS1      c118      -29999604
    RHS1      c119      -19999370
    RHS1      c120      -29999744
BOUNDS
 BV BND1      y[0,0,1]
 BV BND1      y[0,0,2]
 BV BND1      y[0,1,0]
 BV BND1      y[0,1,1]
 BV BND1      y[0,2,0]
 BV BND1      y[1,0,2]
 BV BND1      y[1,1,0]
 BV BND1      y[1,1,1]
 BV BND1      y[1,2,0]
 BV BND1      y[2,0,1]
 BV BND1      y[2,0,2]
 BV BND1      y[2,1,1]
 BV BND1      y[2,1,2]
 BV BND1      y[2,2,0]
 BV BND1      y[2,2,1]
 BV BND1      x[0,0,0,0]
 BV BND1      x[0,0,0,1]
 BV BND1      x[0,0,0,2]
 BV BND1      x[0,0,1,0]
 BV BND1      x[0,0,1,1]
 BV BND1      x[0,0,1,2]
 BV BND1      x[0,0,2,0]
 BV BND1      x[0,0,2,1]
 BV BND1      x[0,0,2,2]
 BV BND1      x[0,1,0,0]
 BV BND1      x[0,1,0,1]
 BV BND1      x[0,1,0,2]
 BV BND1      x[0,1,1,0]
 BV BND1      x[0,1,1,1]
 BV BND1      x[0,1,1,2]
 BV BND1      x[0,1,2,0]
 BV BND1      x[0,1,2,1]
 BV BND1      x[0,1,2,2]
 BV BND1      x[0,2,0,0]
 BV BND1      x[0,2,0,1]
 BV BND1      x[0,2,0,2]
 BV BND1      x[0,2,1,0]
 BV BND1      x[0,2,1,1]
 BV BND1      x[0,2,1,2]
 BV BND1      x[0,2,2,0]
 BV BND1      x[0,2,2,1]
 BV BND1      x[0,2,2,2]
 BV BND1      x[1,0,0,0]
 BV BND1      x[1,0,0,1]
 BV BND1      x[1,0,0,2]
 BV BND1      x[1,0,1,0]
 BV BND1      x[1,0,1,1]
 BV BND1      x[1,0,1,2]
 BV BND1      x[1,0,2,0]
 BV BND1      x[1,0,2,1]
 BV BND1      x[1,0,2,2]
 BV BND1      x[1,1,0,0]
 BV BND1      x[1,1,0,1]
 BV BND1      x[1,1,0,2]
 BV BND1      x[1,1,1,0]
 BV BND1      x[1,1,1,1]
 BV BND1      x[1,1,1,2]
 BV BND1      x[1,1,2,0]
 BV BND1      x[1,1,2,1]
 BV BND1      x[1,1,2,2]
 BV BND1      x[1,2,0,0]
 BV BND1      x[1,2,0,1]
 BV BND1      x[1,2,0,2]
 BV BND1      x[1,2,1,0]
 BV BND1      x[1,2,1,1]
 BV BND1      x[1,2,1,2]
 BV BND1      x[1,2,2,0]
 BV BND1      x[1,2,2,1]
 BV BND1      x[1,2,2,2]
 BV BND1      x[2,0,0,0]
 BV BND1      x[2,0,0,1]
 BV BND1      x[2,0,0,2]
 BV BND1      x[2,0,1,0]
 BV BND1      x[2,0,1,1]
 BV BND1      x[2,0,1,2]
 BV BND1      x[2,0,2,0]
 BV BND1      x[2,0,2,1]
 BV BND1      x[2,0,2,2]
 BV BND1      x[2,1,0,0]
 BV BND1      x[2,1,0,1]
 BV BND1      x[2,1,0,2]
 BV BND1      x[2,1,1,0]
 BV BND1      x[2,1,1,1]
 BV BND1      x[2,1,1,2]
 BV BND1      x[2,1,2,0]
 BV BND1      x[2,1,2,1]
 BV BND1      x[2,1,2,2]
 BV BND1      x[2,2,0,0]
 BV BND1      x[2,2,0,1]
 BV BND1      x[2,2,0,2]
 BV BND1      x[2,2,1,0]
 BV BND1      x[2,2,1,1]
 BV BND1      x[2,2,1,2]
 BV BND1      x[2,2,2,0]
 BV BND1      x[2,2,2,1]
 BV BND1      x[2,2,2,2]
 LI BND1      s[0,0,1]  0
 LI BND1      s[0,0,2]  0
 LI BND1      s[0,1,0]  0
 LI BND1      s[0,1,1]  0
 LI BND1      s[0,2,0]  0
 LI BND1      s[1,0,2]  0
 LI BND1      s[1,1,0]  0
 LI BND1      s[1,1,1]  0
 LI BND1      s[1,2,0]  0
 LI BND1      s[2,0,1]  0
 LI BND1      s[2,0,2]  0
 LI BND1      s[2,1,1]  0
 LI BND1      s[2,1,2]  0
 LI BND1      s[2,2,0]  0
 LI BND1      s[2,2,1]  0
 LI BND1      Z_FO      0
 BV BND1      C112    
 BV BND1      C113    
 BV BND1      C114    
 BV BND1      C115    
 BV BND1      C116    
QCMATRIX   OF_constraint
    s[0,0,1]  C112      -0.5
    C112      s[0,0,1]  -0.5
    s[0,0,2]  C113      -0.5
    C113      s[0,0,2]  -0.5
    s[1,0,2]  C114      -0.5
    C114      s[1,0,2]  -0.5
    s[2,0,1]  C115      -0.5
    C115      s[2,0,1]  -0.5
    s[2,0,2]  C116      -0.5
    C116      s[2,0,2]  -0.5
ENDATA
